p cnf 842 1965
1 -2 0
2 -1 0
3 -4 0
4 -3 0
5 -6 0
6 -5 0
7 -8 0
8 -7 0
9 -10 0
10 -9 0
11 -12 0
12 -11 0
13 -14 0
14 -13 0
15 -16 0
16 -15 0
17 -18 0
18 -17 0
19 -20 0
20 -19 0
21 22 0
23 22 0
-21 -23 -22 0
-24 22 -25 0
24 -22 -25 0
25 -22 -24 0
24 22 25 0
-25 0
26 27 0
28 27 0
-26 -28 -27 0
-23 27 -29 0
23 -27 -29 0
29 -27 -23 0
23 27 29 0
-29 0
30 31 0
32 31 0
-30 -32 -31 0
-28 31 -33 0
28 -31 -33 0
33 -31 -28 0
28 31 33 0
-33 0
34 35 0
36 35 0
-34 -36 -35 0
-32 35 -37 0
32 -35 -37 0
37 -35 -32 0
32 35 37 0
-37 0
38 39 0
40 39 0
-38 -40 -39 0
-36 39 -41 0
36 -39 -41 0
41 -39 -36 0
36 39 41 0
-41 0
42 43 0
44 43 0
-42 -44 -43 0
-40 43 -45 0
40 -43 -45 0
45 -43 -40 0
40 43 45 0
-45 0
46 47 0
48 47 0
-46 -48 -47 0
-44 47 -49 0
44 -47 -49 0
49 -47 -44 0
44 47 49 0
-49 0
50 51 0
52 51 0
-50 -52 -51 0
-48 51 -53 0
48 -51 -53 0
53 -51 -48 0
48 51 53 0
-53 0
54 55 0
56 55 0
-54 -56 -55 0
-52 55 -57 0
52 -55 -57 0
57 -55 -52 0
52 55 57 0
-57 0
58 59 0
60 59 0
-58 -60 -59 0
-56 59 -61 0
56 -59 -61 0
61 -59 -56 0
56 59 61 0
-61 0
62 63 0
64 63 0
-62 -64 -63 0
-60 63 -65 0
60 -63 -65 0
65 -63 -60 0
60 63 65 0
-65 0
66 67 0
68 67 0
-66 -68 -67 0
-64 67 -69 0
64 -67 -69 0
69 -67 -64 0
64 67 69 0
-69 0
70 71 0
72 71 0
-70 -72 -71 0
-68 71 -73 0
68 -71 -73 0
73 -71 -68 0
68 71 73 0
-73 0
74 75 0
76 75 0
-74 -76 -75 0
-72 75 -77 0
72 -75 -77 0
77 -75 -72 0
72 75 77 0
-77 0
50 78 0
54 78 0
58 78 0
62 78 0
66 78 0
70 78 0
74 78 0
79 78 0
-80 0
-76 78 -81 0
76 -78 -81 0
81 -78 -76 0
76 78 81 0
-81 0
82 83 0
84 83 0
-82 -84 -83 0
-85 83 -86 0
85 -83 -86 0
86 -83 -85 0
85 83 86 0
-86 0
87 88 0
89 88 0
-87 -89 -88 0
-84 88 -90 0
84 -88 -90 0
90 -88 -84 0
84 88 90 0
-90 0
91 92 0
93 92 0
-91 -93 -92 0
-89 92 -94 0
89 -92 -94 0
94 -92 -89 0
89 92 94 0
-94 0
95 96 0
97 96 0
-95 -97 -96 0
-93 96 -98 0
93 -96 -98 0
98 -96 -93 0
93 96 98 0
-98 0
99 100 0
101 100 0
-99 -101 -100 0
-97 100 -102 0
97 -100 -102 0
102 -100 -97 0
97 100 102 0
-102 0
103 104 0
105 104 0
-103 -105 -104 0
-101 104 -106 0
101 -104 -106 0
106 -104 -101 0
101 104 106 0
-106 0
107 108 0
109 108 0
-107 -109 -108 0
-105 108 -110 0
105 -108 -110 0
110 -108 -105 0
105 108 110 0
-110 0
111 112 0
113 112 0
-111 -113 -112 0
-109 112 -114 0
109 -112 -114 0
114 -112 -109 0
109 112 114 0
-114 0
115 116 0
117 116 0
-115 -117 -116 0
-113 116 -118 0
113 -116 -118 0
118 -116 -113 0
113 116 118 0
-118 0
119 120 0
121 120 0
-119 -121 -120 0
-117 120 -122 0
117 -120 -122 0
122 -120 -117 0
117 120 122 0
-122 0
123 124 0
125 124 0
-123 -125 -124 0
-121 124 -126 0
121 -124 -126 0
126 -124 -121 0
121 124 126 0
-126 0
127 128 0
129 128 0
-127 -129 -128 0
-125 128 -130 0
125 -128 -130 0
130 -128 -125 0
125 128 130 0
-130 0
103 131 0
107 131 0
111 131 0
115 131 0
119 131 0
123 131 0
127 131 0
132 131 0
-133 0
-129 131 -134 0
129 -131 -134 0
134 -131 -129 0
129 131 134 0
-134 0
135 136 0
137 136 0
-135 -137 -136 0
-138 136 -139 0
138 -136 -139 0
139 -136 -138 0
138 136 139 0
-139 0
140 141 0
142 141 0
-140 -142 -141 0
-137 141 -143 0
137 -141 -143 0
143 -141 -137 0
137 141 143 0
-143 0
144 145 0
146 145 0
-144 -146 -145 0
-142 145 -147 0
142 -145 -147 0
147 -145 -142 0
142 145 147 0
-147 0
148 149 0
150 149 0
-148 -150 -149 0
-146 149 -151 0
146 -149 -151 0
151 -149 -146 0
146 149 151 0
-151 0
152 153 0
154 153 0
-152 -154 -153 0
-150 153 -155 0
150 -153 -155 0
155 -153 -150 0
150 153 155 0
-155 0
156 157 0
158 157 0
-156 -158 -157 0
-154 157 -159 0
154 -157 -159 0
159 -157 -154 0
154 157 159 0
-159 0
160 161 0
162 161 0
-160 -162 -161 0
-158 161 -163 0
158 -161 -163 0
163 -161 -158 0
158 161 163 0
-163 0
164 165 0
166 165 0
-164 -166 -165 0
-162 165 -167 0
162 -165 -167 0
167 -165 -162 0
162 165 167 0
-167 0
168 169 0
170 169 0
-168 -170 -169 0
-166 169 -171 0
166 -169 -171 0
171 -169 -166 0
166 169 171 0
-171 0
172 173 0
174 173 0
-172 -174 -173 0
-170 173 -175 0
170 -173 -175 0
175 -173 -170 0
170 173 175 0
-175 0
176 177 0
178 177 0
-176 -178 -177 0
-174 177 -179 0
174 -177 -179 0
179 -177 -174 0
174 177 179 0
-179 0
180 181 0
182 181 0
-180 -182 -181 0
-178 181 -183 0
178 -181 -183 0
183 -181 -178 0
178 181 183 0
-183 0
184 185 0
186 185 0
-184 -186 -185 0
-182 185 -187 0
182 -185 -187 0
187 -185 -182 0
182 185 187 0
-187 0
168 188 0
172 188 0
176 188 0
180 188 0
184 188 0
189 188 0
-190 0
-186 188 -191 0
186 -188 -191 0
191 -188 -186 0
186 188 191 0
-191 0
192 193 0
194 193 0
-192 -194 -193 0
-195 193 -196 0
195 -193 -196 0
196 -193 -195 0
195 193 196 0
-196 0
197 198 0
199 198 0
-197 -199 -198 0
-194 198 -200 0
194 -198 -200 0
200 -198 -194 0
194 198 200 0
-200 0
201 202 0
203 202 0
-201 -203 -202 0
-199 202 -204 0
199 -202 -204 0
204 -202 -199 0
199 202 204 0
-204 0
205 206 0
207 206 0
-205 -207 -206 0
-203 206 -208 0
203 -206 -208 0
208 -206 -203 0
203 206 208 0
-208 0
209 210 0
211 210 0
-209 -211 -210 0
-207 210 -212 0
207 -210 -212 0
212 -210 -207 0
207 210 212 0
-212 0
213 214 0
215 214 0
-213 -215 -214 0
-211 214 -216 0
211 -214 -216 0
216 -214 -211 0
211 214 216 0
-216 0
217 218 0
219 218 0
-217 -219 -218 0
-215 218 -220 0
215 -218 -220 0
220 -218 -215 0
215 218 220 0
-220 0
221 222 0
223 222 0
-221 -223 -222 0
-219 222 -224 0
219 -222 -224 0
224 -222 -219 0
219 222 224 0
-224 0
225 226 0
227 226 0
-225 -227 -226 0
-223 226 -228 0
223 -226 -228 0
228 -226 -223 0
223 226 228 0
-228 0
229 230 0
231 230 0
-229 -231 -230 0
-227 230 -232 0
227 -230 -232 0
232 -230 -227 0
227 230 232 0
-232 0
233 234 0
235 234 0
-233 -235 -234 0
-231 234 -236 0
231 -234 -236 0
236 -234 -231 0
231 234 236 0
-236 0
213 237 0
217 237 0
221 237 0
225 237 0
229 237 0
233 237 0
238 237 0
-239 0
-235 237 -240 0
235 -237 -240 0
240 -237 -235 0
235 237 240 0
-240 0
241 242 0
243 242 0
-241 -243 -242 0
-244 242 -245 0
244 -242 -245 0
245 -242 -244 0
244 242 245 0
-245 0
246 247 0
248 247 0
-246 -248 -247 0
-243 247 -249 0
243 -247 -249 0
249 -247 -243 0
243 247 249 0
-249 0
250 251 0
252 251 0
-250 -252 -251 0
-248 251 -253 0
248 -251 -253 0
253 -251 -248 0
248 251 253 0
-253 0
254 255 0
256 255 0
-254 -256 -255 0
-252 255 -257 0
252 -255 -257 0
257 -255 -252 0
252 255 257 0
-257 0
258 259 0
260 259 0
-258 -260 -259 0
-256 259 -261 0
256 -259 -261 0
261 -259 -256 0
256 259 261 0
-261 0
262 263 0
264 263 0
-262 -264 -263 0
-260 263 -265 0
260 -263 -265 0
265 -263 -260 0
260 263 265 0
-265 0
266 267 0
268 267 0
-266 -268 -267 0
-264 267 -269 0
264 -267 -269 0
269 -267 -264 0
264 267 269 0
-269 0
270 271 0
272 271 0
-270 -272 -271 0
-268 271 -273 0
268 -271 -273 0
273 -271 -268 0
268 271 273 0
-273 0
274 275 0
276 275 0
-274 -276 -275 0
-272 275 -277 0
272 -275 -277 0
277 -275 -272 0
272 275 277 0
-277 0
278 279 0
280 279 0
-278 -280 -279 0
-276 279 -281 0
276 -279 -281 0
281 -279 -276 0
276 279 281 0
-281 0
282 283 0
284 283 0
-282 -284 -283 0
-280 283 -285 0
280 -283 -285 0
285 -283 -280 0
280 283 285 0
-285 0
286 287 0
288 287 0
-286 -288 -287 0
-284 287 -289 0
284 -287 -289 0
289 -287 -284 0
284 287 289 0
-289 0
290 291 0
292 291 0
-290 -292 -291 0
-288 291 -293 0
288 -291 -293 0
293 -291 -288 0
288 291 293 0
-293 0
266 294 0
270 294 0
274 294 0
278 294 0
282 294 0
286 294 0
290 294 0
295 294 0
-296 0
-292 294 -297 0
292 -294 -297 0
297 -294 -292 0
292 294 297 0
-297 0
298 299 0
300 299 0
-298 -300 -299 0
-301 299 -302 0
301 -299 -302 0
302 -299 -301 0
301 299 302 0
-302 0
303 304 0
305 304 0
-303 -305 -304 0
-300 304 -306 0
300 -304 -306 0
306 -304 -300 0
300 304 306 0
-306 0
307 308 0
309 308 0
-307 -309 -308 0
-305 308 -310 0
305 -308 -310 0
310 -308 -305 0
305 308 310 0
-310 0
311 312 0
313 312 0
-311 -313 -312 0
-309 312 -314 0
309 -312 -314 0
314 -312 -309 0
309 312 314 0
-314 0
315 316 0
317 316 0
-315 -317 -316 0
-313 316 -318 0
313 -316 -318 0
318 -316 -313 0
313 316 318 0
-318 0
319 320 0
321 320 0
-319 -321 -320 0
-317 320 -322 0
317 -320 -322 0
322 -320 -317 0
317 320 322 0
-322 0
323 324 0
325 324 0
-323 -325 -324 0
-321 324 -326 0
321 -324 -326 0
326 -324 -321 0
321 324 326 0
-326 0
327 328 0
329 328 0
-327 -329 -328 0
-325 328 -330 0
325 -328 -330 0
330 -328 -325 0
325 328 330 0
-330 0
331 332 0
333 332 0
-331 -333 -332 0
-329 332 -334 0
329 -332 -334 0
334 -332 -329 0
329 332 334 0
-334 0
335 336 0
337 336 0
-335 -337 -336 0
-333 336 -338 0
333 -336 -338 0
338 -336 -333 0
333 336 338 0
-338 0
339 340 0
341 340 0
-339 -341 -340 0
-337 340 -342 0
337 -340 -342 0
342 -340 -337 0
337 340 342 0
-342 0
343 344 0
345 344 0
-343 -345 -344 0
-341 344 -346 0
341 -344 -346 0
346 -344 -341 0
341 344 346 0
-346 0
323 347 0
327 347 0
331 347 0
335 347 0
339 347 0
343 347 0
348 347 0
-349 0
-345 347 -350 0
345 -347 -350 0
350 -347 -345 0
345 347 350 0
-350 0
351 352 0
353 352 0
-351 -353 -352 0
-354 352 -355 0
354 -352 -355 0
355 -352 -354 0
354 352 355 0
-355 0
356 357 0
358 357 0
-356 -358 -357 0
-353 357 -359 0
353 -357 -359 0
359 -357 -353 0
353 357 359 0
-359 0
360 361 0
362 361 0
-360 -362 -361 0
-358 361 -363 0
358 -361 -363 0
363 -361 -358 0
358 361 363 0
-363 0
364 365 0
366 365 0
-364 -366 -365 0
-362 365 -367 0
362 -365 -367 0
367 -365 -362 0
362 365 367 0
-367 0
368 369 0
370 369 0
-368 -370 -369 0
-366 369 -371 0
366 -369 -371 0
371 -369 -366 0
366 369 371 0
-371 0
372 373 0
374 373 0
-372 -374 -373 0
-370 373 -375 0
370 -373 -375 0
375 -373 -370 0
370 373 375 0
-375 0
376 377 0
378 377 0
-376 -378 -377 0
-374 377 -379 0
374 -377 -379 0
379 -377 -374 0
374 377 379 0
-379 0
380 381 0
382 381 0
-380 -382 -381 0
-378 381 -383 0
378 -381 -383 0
383 -381 -378 0
378 381 383 0
-383 0
384 385 0
386 385 0
-384 -386 -385 0
-382 385 -387 0
382 -385 -387 0
387 -385 -382 0
382 385 387 0
-387 0
388 389 0
390 389 0
-388 -390 -389 0
-386 389 -391 0
386 -389 -391 0
391 -389 -386 0
386 389 391 0
-391 0
392 393 0
394 393 0
-392 -394 -393 0
-390 393 -395 0
390 -393 -395 0
395 -393 -390 0
390 393 395 0
-395 0
396 397 0
398 397 0
-396 -398 -397 0
-394 397 -399 0
394 -397 -399 0
399 -397 -394 0
394 397 399 0
-399 0
400 401 0
402 401 0
-400 -402 -401 0
-398 401 -403 0
398 -401 -403 0
403 -401 -398 0
398 401 403 0
-403 0
404 405 0
406 405 0
-404 -406 -405 0
-402 405 -407 0
402 -405 -407 0
407 -405 -402 0
402 405 407 0
-407 0
380 408 0
384 408 0
388 408 0
392 408 0
396 408 0
400 408 0
404 408 0
409 408 0
-410 0
-406 408 -411 0
406 -408 -411 0
411 -408 -406 0
406 408 411 0
-411 0
412 413 0
414 413 0
-412 -414 -413 0
-415 413 -416 0
415 -413 -416 0
416 -413 -415 0
415 413 416 0
-416 0
417 418 0
419 418 0
-417 -419 -418 0
-414 418 -420 0
414 -418 -420 0
420 -418 -414 0
414 418 420 0
-420 0
421 422 0
423 422 0
-421 -423 -422 0
-419 422 -424 0
419 -422 -424 0
424 -422 -419 0
419 422 424 0
-424 0
425 426 0
427 426 0
-425 -427 -426 0
-423 426 -428 0
423 -426 -428 0
428 -426 -423 0
423 426 428 0
-428 0
429 430 0
431 430 0
-429 -431 -430 0
-427 430 -432 0
427 -430 -432 0
432 -430 -427 0
427 430 432 0
-432 0
433 434 0
435 434 0
-433 -435 -434 0
-431 434 -436 0
431 -434 -436 0
436 -434 -431 0
431 434 436 0
-436 0
437 438 0
439 438 0
-437 -439 -438 0
-435 438 -440 0
435 -438 -440 0
440 -438 -435 0
435 438 440 0
-440 0
441 442 0
443 442 0
-441 -443 -442 0
-439 442 -444 0
439 -442 -444 0
444 -442 -439 0
439 442 444 0
-444 0
445 446 0
447 446 0
-445 -447 -446 0
-443 446 -448 0
443 -446 -448 0
448 -446 -443 0
443 446 448 0
-448 0
429 449 0
433 449 0
437 449 0
441 449 0
445 449 0
450 449 0
-451 0
-447 449 -452 0
447 -449 -452 0
452 -449 -447 0
447 449 452 0
-452 0
453 454 0
455 454 0
-453 -455 -454 0
-456 454 -457 0
456 -454 -457 0
457 -454 -456 0
456 454 457 0
-457 0
458 459 0
460 459 0
-458 -460 -459 0
-455 459 -461 0
455 -459 -461 0
461 -459 -455 0
455 459 461 0
-461 0
462 463 0
464 463 0
-462 -464 -463 0
-460 463 -465 0
460 -463 -465 0
465 -463 -460 0
460 463 465 0
-465 0
466 467 0
468 467 0
-466 -468 -467 0
-464 467 -469 0
464 -467 -469 0
469 -467 -464 0
464 467 469 0
-469 0
470 471 0
472 471 0
-470 -472 -471 0
-468 471 -473 0
468 -471 -473 0
473 -471 -468 0
468 471 473 0
-473 0
474 475 0
476 475 0
-474 -476 -475 0
-472 475 -477 0
472 -475 -477 0
477 -475 -472 0
472 475 477 0
-477 0
478 479 0
480 479 0
-478 -480 -479 0
-476 479 -481 0
476 -479 -481 0
481 -479 -476 0
476 479 481 0
-481 0
482 483 0
484 483 0
-482 -484 -483 0
-480 483 -485 0
480 -483 -485 0
485 -483 -480 0
480 483 485 0
-485 0
486 487 0
488 487 0
-486 -488 -487 0
-484 487 -489 0
484 -487 -489 0
489 -487 -484 0
484 487 489 0
-489 0
490 491 0
492 491 0
-490 -492 -491 0
-488 491 -493 0
488 -491 -493 0
493 -491 -488 0
488 491 493 0
-493 0
494 495 0
496 495 0
-494 -496 -495 0
-492 495 -497 0
492 -495 -497 0
497 -495 -492 0
492 495 497 0
-497 0
498 499 0
500 499 0
-498 -500 -499 0
-496 499 -501 0
496 -499 -501 0
501 -499 -496 0
496 499 501 0
-501 0
474 502 0
478 502 0
482 502 0
486 502 0
490 502 0
494 502 0
498 502 0
503 502 0
-504 0
-500 502 -505 0
500 -502 -505 0
505 -502 -500 0
500 502 505 0
-505 0
506 507 0
508 507 0
-506 -508 -507 0
-509 507 -510 0
509 -507 -510 0
510 -507 -509 0
509 507 510 0
-510 0
511 512 0
513 512 0
-511 -513 -512 0
-508 512 -514 0
508 -512 -514 0
514 -512 -508 0
508 512 514 0
-514 0
515 516 0
517 516 0
-515 -517 -516 0
-513 516 -518 0
513 -516 -518 0
518 -516 -513 0
513 516 518 0
-518 0
519 520 0
521 520 0
-519 -521 -520 0
-517 520 -522 0
517 -520 -522 0
522 -520 -517 0
517 520 522 0
-522 0
523 524 0
525 524 0
-523 -525 -524 0
-521 524 -526 0
521 -524 -526 0
526 -524 -521 0
521 524 526 0
-526 0
527 528 0
529 528 0
-527 -529 -528 0
-525 528 -530 0
525 -528 -530 0
530 -528 -525 0
525 528 530 0
-530 0
531 532 0
533 532 0
-531 -533 -532 0
-529 532 -534 0
529 -532 -534 0
534 -532 -529 0
529 532 534 0
-534 0
535 536 0
537 536 0
-535 -537 -536 0
-533 536 -538 0
533 -536 -538 0
538 -536 -533 0
533 536 538 0
-538 0
539 540 0
541 540 0
-539 -541 -540 0
-537 540 -542 0
537 -540 -542 0
542 -540 -537 0
537 540 542 0
-542 0
543 544 0
545 544 0
-543 -545 -544 0
-541 544 -546 0
541 -544 -546 0
546 -544 -541 0
541 544 546 0
-546 0
547 548 0
549 548 0
-547 -549 -548 0
-545 548 -550 0
545 -548 -550 0
550 -548 -545 0
545 548 550 0
-550 0
551 552 0
553 552 0
-551 -553 -552 0
-549 552 -554 0
549 -552 -554 0
554 -552 -549 0
549 552 554 0
-554 0
531 555 0
535 555 0
539 555 0
543 555 0
547 555 0
551 555 0
556 555 0
-557 0
-553 555 -558 0
553 -555 -558 0
558 -555 -553 0
553 555 558 0
-558 0
559 -2 -560 0
2 -559 -560 0
-559 -2 560 0
2 559 560 0
-560 0
561 -4 -562 0
4 -561 -562 0
-561 -4 562 0
4 561 562 0
-562 0
563 -6 -564 0
6 -563 -564 0
-563 -6 564 0
6 563 564 0
-564 0
565 -8 -566 0
8 -565 -566 0
-565 -8 566 0
8 565 566 0
-566 0
567 -10 -568 0
10 -567 -568 0
-567 -10 568 0
10 567 568 0
-568 0
569 -12 -570 0
12 -569 -570 0
-569 -12 570 0
12 569 570 0
-570 0
571 -14 -572 0
14 -571 -572 0
-571 -14 572 0
14 571 572 0
-572 0
573 -16 -574 0
16 -573 -574 0
-573 -16 574 0
16 573 574 0
-574 0
575 -18 -576 0
18 -575 -576 0
-575 -18 576 0
18 575 576 0
-576 0
577 -20 -578 0
20 -577 -578 0
-577 -20 578 0
20 577 578 0
-578 0
579 -21 -580 0
21 -579 -580 0
-579 -21 580 0
21 579 580 0
-580 0
581 -26 -582 0
26 -581 -582 0
-581 -26 582 0
26 581 582 0
-582 0
583 -30 -584 0
30 -583 -584 0
-583 -30 584 0
30 583 584 0
-584 0
585 -34 -586 0
34 -585 -586 0
-585 -34 586 0
34 585 586 0
-586 0
587 -38 -588 0
38 -587 -588 0
-587 -38 588 0
38 587 588 0
-588 0
589 -42 -590 0
42 -589 -590 0
-589 -42 590 0
42 589 590 0
-590 0
591 -46 -592 0
46 -591 -592 0
-591 -46 592 0
46 591 592 0
-592 0
593 -50 -594 0
50 -593 -594 0
-593 -50 594 0
50 593 594 0
-594 0
595 -54 -596 0
54 -595 -596 0
-595 -54 596 0
54 595 596 0
-596 0
597 -58 -598 0
58 -597 -598 0
-597 -58 598 0
58 597 598 0
-598 0
599 -62 -600 0
62 -599 -600 0
-599 -62 600 0
62 599 600 0
-600 0
601 -66 -602 0
66 -601 -602 0
-601 -66 602 0
66 601 602 0
-602 0
603 -70 -604 0
70 -603 -604 0
-603 -70 604 0
70 603 604 0
-604 0
605 -74 -606 0
74 -605 -606 0
-605 -74 606 0
74 605 606 0
-606 0
607 -79 -608 0
79 -607 -608 0
-607 -79 608 0
79 607 608 0
-608 0
609 -82 -610 0
82 -609 -610 0
-609 -82 610 0
82 609 610 0
-610 0
611 -87 -612 0
87 -611 -612 0
-611 -87 612 0
87 611 612 0
-612 0
613 -91 -614 0
91 -613 -614 0
-613 -91 614 0
91 613 614 0
-614 0
615 -95 -616 0
95 -615 -616 0
-615 -95 616 0
95 615 616 0
-616 0
617 -99 -618 0
99 -617 -618 0
-617 -99 618 0
99 617 618 0
-618 0
619 -103 -620 0
103 -619 -620 0
-619 -103 620 0
103 619 620 0
-620 0
621 -107 -622 0
107 -621 -622 0
-621 -107 622 0
107 621 622 0
-622 0
623 -111 -624 0
111 -623 -624 0
-623 -111 624 0
111 623 624 0
-624 0
625 -115 -626 0
115 -625 -626 0
-625 -115 626 0
115 625 626 0
-626 0
627 -119 -628 0
119 -627 -628 0
-627 -119 628 0
119 627 628 0
-628 0
629 -123 -630 0
123 -629 -630 0
-629 -123 630 0
123 629 630 0
-630 0
631 -127 -632 0
127 -631 -632 0
-631 -127 632 0
127 631 632 0
-632 0
633 -132 -634 0
132 -633 -634 0
-633 -132 634 0
132 633 634 0
-634 0
635 -135 -636 0
135 -635 -636 0
-635 -135 636 0
135 635 636 0
-636 0
637 -140 -638 0
140 -637 -638 0
-637 -140 638 0
140 637 638 0
-638 0
639 -144 -640 0
144 -639 -640 0
-639 -144 640 0
144 639 640 0
-640 0
641 -148 -642 0
148 -641 -642 0
-641 -148 642 0
148 641 642 0
-642 0
643 -152 -644 0
152 -643 -644 0
-643 -152 644 0
152 643 644 0
-644 0
645 -156 -646 0
156 -645 -646 0
-645 -156 646 0
156 645 646 0
-646 0
647 -160 -648 0
160 -647 -648 0
-647 -160 648 0
160 647 648 0
-648 0
649 -164 -650 0
164 -649 -650 0
-649 -164 650 0
164 649 650 0
-650 0
651 -168 -652 0
168 -651 -652 0
-651 -168 652 0
168 651 652 0
-652 0
653 -172 -654 0
172 -653 -654 0
-653 -172 654 0
172 653 654 0
-654 0
655 -176 -656 0
176 -655 -656 0
-655 -176 656 0
176 655 656 0
-656 0
657 -180 -658 0
180 -657 -658 0
-657 -180 658 0
180 657 658 0
-658 0
659 -184 -660 0
184 -659 -660 0
-659 -184 660 0
184 659 660 0
-660 0
661 -189 -662 0
189 -661 -662 0
-661 -189 662 0
189 661 662 0
-662 0
663 -192 -664 0
192 -663 -664 0
-663 -192 664 0
192 663 664 0
-664 0
665 -197 -666 0
197 -665 -666 0
-665 -197 666 0
197 665 666 0
-666 0
667 -201 -668 0
201 -667 -668 0
-667 -201 668 0
201 667 668 0
-668 0
669 -205 -670 0
205 -669 -670 0
-669 -205 670 0
205 669 670 0
-670 0
671 -209 -672 0
209 -671 -672 0
-671 -209 672 0
209 671 672 0
-672 0
673 -213 -674 0
213 -673 -674 0
-673 -213 674 0
213 673 674 0
-674 0
675 -217 -676 0
217 -675 -676 0
-675 -217 676 0
217 675 676 0
-676 0
677 -221 -678 0
221 -677 -678 0
-677 -221 678 0
221 677 678 0
-678 0
679 -225 -680 0
225 -679 -680 0
-679 -225 680 0
225 679 680 0
-680 0
681 -229 -682 0
229 -681 -682 0
-681 -229 682 0
229 681 682 0
-682 0
683 -233 -684 0
233 -683 -684 0
-683 -233 684 0
233 683 684 0
-684 0
685 -238 -686 0
238 -685 -686 0
-685 -238 686 0
238 685 686 0
-686 0
687 -241 -688 0
241 -687 -688 0
-687 -241 688 0
241 687 688 0
-688 0
689 -246 -690 0
246 -689 -690 0
-689 -246 690 0
246 689 690 0
-690 0
691 -250 -692 0
250 -691 -692 0
-691 -250 692 0
250 691 692 0
-692 0
693 -254 -694 0
254 -693 -694 0
-693 -254 694 0
254 693 694 0
-694 0
695 -258 -696 0
258 -695 -696 0
-695 -258 696 0
258 695 696 0
-696 0
697 -262 -698 0
262 -697 -698 0
-697 -262 698 0
262 697 698 0
-698 0
699 -266 -700 0
266 -699 -700 0
-699 -266 700 0
266 699 700 0
-700 0
701 -270 -702 0
270 -701 -702 0
-701 -270 702 0
270 701 702 0
-702 0
703 -274 -704 0
274 -703 -704 0
-703 -274 704 0
274 703 704 0
-704 0
705 -278 -706 0
278 -705 -706 0
-705 -278 706 0
278 705 706 0
-706 0
707 -282 -708 0
282 -707 -708 0
-707 -282 708 0
282 707 708 0
-708 0
709 -286 -710 0
286 -709 -710 0
-709 -286 710 0
286 709 710 0
-710 0
711 -290 -712 0
290 -711 -712 0
-711 -290 712 0
290 711 712 0
-712 0
713 -295 -714 0
295 -713 -714 0
-713 -295 714 0
295 713 714 0
-714 0
715 -298 -716 0
298 -715 -716 0
-715 -298 716 0
298 715 716 0
-716 0
717 -303 -718 0
303 -717 -718 0
-717 -303 718 0
303 717 718 0
-718 0
719 -307 -720 0
307 -719 -720 0
-719 -307 720 0
307 719 720 0
-720 0
721 -311 -722 0
311 -721 -722 0
-721 -311 722 0
311 721 722 0
-722 0
723 -315 -724 0
315 -723 -724 0
-723 -315 724 0
315 723 724 0
-724 0
725 -319 -726 0
319 -725 -726 0
-725 -319 726 0
319 725 726 0
-726 0
727 -323 -728 0
323 -727 -728 0
-727 -323 728 0
323 727 728 0
-728 0
729 -327 -730 0
327 -729 -730 0
-729 -327 730 0
327 729 730 0
-730 0
731 -331 -732 0
331 -731 -732 0
-731 -331 732 0
331 731 732 0
-732 0
733 -335 -734 0
335 -733 -734 0
-733 -335 734 0
335 733 734 0
-734 0
735 -339 -736 0
339 -735 -736 0
-735 -339 736 0
339 735 736 0
-736 0
737 -343 -738 0
343 -737 -738 0
-737 -343 738 0
343 737 738 0
-738 0
739 -348 -740 0
348 -739 -740 0
-739 -348 740 0
348 739 740 0
-740 0
741 -351 -742 0
351 -741 -742 0
-741 -351 742 0
351 741 742 0
-742 0
743 -356 -744 0
356 -743 -744 0
-743 -356 744 0
356 743 744 0
-744 0
745 -360 -746 0
360 -745 -746 0
-745 -360 746 0
360 745 746 0
-746 0
747 -364 -748 0
364 -747 -748 0
-747 -364 748 0
364 747 748 0
-748 0
749 -368 -750 0
368 -749 -750 0
-749 -368 750 0
368 749 750 0
-750 0
751 -372 -752 0
372 -751 -752 0
-751 -372 752 0
372 751 752 0
-752 0
753 -376 -754 0
376 -753 -754 0
-753 -376 754 0
376 753 754 0
-754 0
755 -380 -756 0
380 -755 -756 0
-755 -380 756 0
380 755 756 0
-756 0
757 -384 -758 0
384 -757 -758 0
-757 -384 758 0
384 757 758 0
-758 0
759 -388 -760 0
388 -759 -760 0
-759 -388 760 0
388 759 760 0
-760 0
761 -392 -762 0
392 -761 -762 0
-761 -392 762 0
392 761 762 0
-762 0
763 -396 -764 0
396 -763 -764 0
-763 -396 764 0
396 763 764 0
-764 0
765 -400 -766 0
400 -765 -766 0
-765 -400 766 0
400 765 766 0
-766 0
767 -404 -768 0
404 -767 -768 0
-767 -404 768 0
404 767 768 0
-768 0
769 -409 -770 0
409 -769 -770 0
-769 -409 770 0
409 769 770 0
-770 0
771 -412 -772 0
412 -771 -772 0
-771 -412 772 0
412 771 772 0
-772 0
773 -417 -774 0
417 -773 -774 0
-773 -417 774 0
417 773 774 0
-774 0
775 -421 -776 0
421 -775 -776 0
-775 -421 776 0
421 775 776 0
-776 0
777 -425 -778 0
425 -777 -778 0
-777 -425 778 0
425 777 778 0
-778 0
779 -429 -780 0
429 -779 -780 0
-779 -429 780 0
429 779 780 0
-780 0
781 -433 -782 0
433 -781 -782 0
-781 -433 782 0
433 781 782 0
-782 0
783 -437 -784 0
437 -783 -784 0
-783 -437 784 0
437 783 784 0
-784 0
785 -441 -786 0
441 -785 -786 0
-785 -441 786 0
441 785 786 0
-786 0
787 -445 -788 0
445 -787 -788 0
-787 -445 788 0
445 787 788 0
-788 0
789 -450 -790 0
450 -789 -790 0
-789 -450 790 0
450 789 790 0
-790 0
791 -453 -792 0
453 -791 -792 0
-791 -453 792 0
453 791 792 0
-792 0
793 -458 -794 0
458 -793 -794 0
-793 -458 794 0
458 793 794 0
-794 0
795 -462 -796 0
462 -795 -796 0
-795 -462 796 0
462 795 796 0
-796 0
797 -466 -798 0
466 -797 -798 0
-797 -466 798 0
466 797 798 0
-798 0
799 -470 -800 0
470 -799 -800 0
-799 -470 800 0
470 799 800 0
-800 0
801 -474 -802 0
474 -801 -802 0
-801 -474 802 0
474 801 802 0
-802 0
803 -478 -804 0
478 -803 -804 0
-803 -478 804 0
478 803 804 0
-804 0
805 -482 -806 0
482 -805 -806 0
-805 -482 806 0
482 805 806 0
-806 0
807 -486 -808 0
486 -807 -808 0
-807 -486 808 0
486 807 808 0
-808 0
809 -490 -810 0
490 -809 -810 0
-809 -490 810 0
490 809 810 0
-810 0
811 -494 -812 0
494 -811 -812 0
-811 -494 812 0
494 811 812 0
-812 0
813 -498 -814 0
498 -813 -814 0
-813 -498 814 0
498 813 814 0
-814 0
815 -503 -816 0
503 -815 -816 0
-815 -503 816 0
503 815 816 0
-816 0
817 -506 -818 0
506 -817 -818 0
-817 -506 818 0
506 817 818 0
-818 0
819 -511 -820 0
511 -819 -820 0
-819 -511 820 0
511 819 820 0
-820 0
821 -515 -822 0
515 -821 -822 0
-821 -515 822 0
515 821 822 0
-822 0
823 -519 -824 0
519 -823 -824 0
-823 -519 824 0
519 823 824 0
-824 0
825 -523 -826 0
523 -825 -826 0
-825 -523 826 0
523 825 826 0
-826 0
827 -527 -828 0
527 -827 -828 0
-827 -527 828 0
527 827 828 0
-828 0
829 -531 -830 0
531 -829 -830 0
-829 -531 830 0
531 829 830 0
-830 0
831 -535 -832 0
535 -831 -832 0
-831 -535 832 0
535 831 832 0
-832 0
833 -539 -834 0
539 -833 -834 0
-833 -539 834 0
539 833 834 0
-834 0
835 -543 -836 0
543 -835 -836 0
-835 -543 836 0
543 835 836 0
-836 0
837 -547 -838 0
547 -837 -838 0
-837 -547 838 0
547 837 838 0
-838 0
839 -551 -840 0
551 -839 -840 0
-839 -551 840 0
551 839 840 0
-840 0
841 -556 -842 0
556 -841 -842 0
-841 -556 842 0
556 841 842 0
-842 0
1 0
3 0
5 0
7 0
9 0
11 0
13 0
15 0
17 0
19 0
-24 0
-85 0
-138 0
-195 0
-244 0
-301 0
-354 0
-415 0
-456 0
-509 0
559 -561 0
-559 561 0
559 -563 0
-559 563 0
559 -565 0
-559 565 0
559 -567 0
-559 567 0
559 -569 0
-559 569 0
559 -571 0
-559 571 0
559 -573 0
-559 573 0
559 -575 0
-559 575 0
559 -577 0
-559 577 0
561 -563 0
-561 563 0
561 -565 0
-561 565 0
561 -567 0
-561 567 0
561 -569 0
-561 569 0
561 -571 0
-561 571 0
561 -573 0
-561 573 0
561 -575 0
-561 575 0
561 -577 0
-561 577 0
563 -565 0
-563 565 0
563 -567 0
-563 567 0
563 -569 0
-563 569 0
563 -571 0
-563 571 0
563 -573 0
-563 573 0
563 -575 0
-563 575 0
563 -577 0
-563 577 0
565 -567 0
-565 567 0
565 -569 0
-565 569 0
565 -571 0
-565 571 0
565 -573 0
-565 573 0
565 -575 0
-565 575 0
565 -577 0
-565 577 0
567 -569 0
-567 569 0
567 -571 0
-567 571 0
567 -573 0
-567 573 0
567 -575 0
-567 575 0
567 -577 0
-567 577 0
569 -571 0
-569 571 0
569 -573 0
-569 573 0
569 -575 0
-569 575 0
569 -577 0
-569 577 0
571 -573 0
-571 573 0
571 -575 0
-571 575 0
571 -577 0
-571 577 0
573 -575 0
-573 575 0
573 -577 0
-573 577 0
575 -577 0
-575 577 0
619 -757 0
-619 757 0
621 -759 0
-621 759 0
623 -761 0
-623 761 0
625 -763 0
-625 763 0
627 -765 0
-627 765 0
629 -767 0
-629 767 0
631 -769 0
-631 769 0
633 -755 0
-633 755 0
